c This is a random SAT instance with 10 variables and 20 clauses
p cnf 10 20
-5 -2 -10 -7 7 10 9 0
3 -1 2 -3 0
2 -10 10 7 0
3 -4 7 0
-4 -7 -9 -10 3 -1 -6 0
3 0
1 0
3 8 -7 -9 -2 7 1 -10 -6 -8 0
9 0
-9 -8 -5 -2 6 -4 4 -10 0
-9 -1 -7 10 -6 -4 2 0
-2 5 1 4 -10 -1 6 0
8 0
7 -8 8 -5 9 -7 -6 1 -4 -10 0
6 3 -9 -5 8 10 7 -7 0
-9 -7 3 9 4 -4 1 2 -6 10 0
-9 2 -7 -5 0
-4 -3 3 -10 4 5 10 8 -1 0
4 1 -10 2 0
8 5 -4 -7 4 0